% seed = 0

mint = 41;
% maxt = 222;

nActs = 92;
dur = [0,2,2,3,3,1,1,3,3,5,3,3,2,2,3,3,3,1,2,1,5,3,2,4,2,6,3,1,3,1,3,4,2,1,3,2,1,2,5,2,2,3,2,3,3,2,1,4,2,4,2,3,2,2,3,2,2,3,4,2,2,2,2,1,2,1,1,2,4,1,2,2,1,2,3,3,5,2,2,4,3,2,3,3,3,1,1,2,2,3,3,0];

nSkills = 9;
sreq = [| 0,0,0,0,0,0,0,0,0,
	| 0,0,0,0,0,0,2,0,0,
	| 0,0,0,0,0,0,0,1,1,
	| 0,0,0,0,0,0,0,0,1,
	| 0,0,0,0,0,0,0,1,0,
	| 0,0,0,0,0,0,0,2,0,
	| 0,0,0,0,0,0,0,0,1,
	| 0,0,0,0,0,0,0,1,0,
	| 0,0,0,0,0,0,0,1,0,
	| 0,0,0,0,1,0,0,0,1,
	| 0,0,0,0,1,0,0,1,0,
	| 0,0,0,0,0,0,0,1,1,
	| 0,0,0,0,0,0,0,0,1,
	| 0,0,0,0,0,0,0,1,0,
	| 0,0,1,0,0,0,1,0,0,
	| 0,0,0,0,0,0,0,1,0,
	| 0,0,0,1,0,0,0,0,1,
	| 0,0,0,0,0,0,0,1,1,
	| 0,0,0,1,0,0,0,0,1,
	| 0,0,1,0,0,0,0,1,0,
	| 0,0,0,0,1,0,0,0,0,
	| 0,0,0,0,0,0,1,0,1,
	| 0,0,0,0,0,0,1,1,0,
	| 0,0,0,0,0,0,1,0,1,
	| 0,0,0,0,0,0,0,1,0,
	| 0,0,1,0,0,0,0,0,0,
	| 0,0,0,0,0,0,1,1,0,
	| 0,0,0,0,0,0,0,1,0,
	| 1,0,0,0,1,0,0,0,0,
	| 0,0,0,0,0,0,0,1,1,
	| 0,0,0,0,0,0,1,1,0,
	| 0,0,0,0,0,0,0,1,1,
	| 0,0,0,0,0,0,0,1,0,
	| 0,0,0,0,0,0,1,0,0,
	| 0,0,0,0,0,0,0,1,1,
	| 0,0,0,0,0,0,0,0,1,
	| 0,0,0,0,1,0,0,0,0,
	| 0,0,1,0,0,0,0,1,0,
	| 0,0,0,0,0,0,0,0,1,
	| 0,0,1,0,0,0,1,0,0,
	| 0,0,0,0,0,0,0,1,1,
	| 0,0,0,1,0,0,0,0,0,
	| 0,0,0,0,0,0,1,0,1,
	| 0,0,0,0,0,0,0,1,0,
	| 0,0,0,0,0,0,1,0,0,
	| 0,0,0,0,0,0,1,0,1,
	| 0,0,0,0,0,0,1,0,0,
	| 0,0,0,0,1,0,0,1,0,
	| 0,0,0,0,0,0,0,1,1,
	| 0,0,0,0,1,0,0,0,0,
	| 0,0,0,0,1,0,0,0,1,
	| 0,0,0,0,0,0,1,0,1,
	| 0,0,0,0,0,0,1,1,0,
	| 0,0,0,0,0,0,1,0,1,
	| 0,0,0,0,0,0,0,0,2,
	| 0,0,1,0,0,0,0,0,1,
	| 0,0,0,0,0,0,0,0,1,
	| 0,0,0,0,0,0,0,1,1,
	| 0,0,0,0,0,0,0,1,1,
	| 0,0,0,0,0,0,0,0,1,
	| 0,0,0,0,0,0,0,0,1,
	| 0,0,0,0,0,0,0,0,1,
	| 0,0,0,0,0,0,0,0,2,
	| 0,0,0,0,0,0,0,1,0,
	| 0,0,0,0,0,0,1,0,0,
	| 0,1,0,0,0,0,0,0,1,
	| 0,0,0,0,0,0,0,0,1,
	| 1,0,0,0,0,0,0,1,0,
	| 0,0,0,0,0,0,0,1,1,
	| 0,0,0,0,0,0,0,1,1,
	| 0,1,0,0,0,0,0,0,1,
	| 0,0,0,0,0,1,0,0,1,
	| 0,1,1,0,0,0,0,0,0,
	| 0,0,0,0,0,1,0,0,1,
	| 0,0,0,0,0,0,0,1,0,
	| 0,0,0,0,0,1,0,0,0,
	| 0,1,0,0,0,0,0,0,0,
	| 0,0,0,0,0,0,0,1,1,
	| 0,0,0,1,0,0,0,0,0,
	| 0,0,0,0,1,0,0,0,1,
	| 0,0,0,0,0,0,1,0,1,
	| 0,0,0,0,0,0,0,1,0,
	| 0,0,0,0,0,0,0,1,1,
	| 0,0,0,1,0,0,0,0,0,
	| 0,1,0,0,0,0,1,0,0,
	| 0,0,0,1,0,0,0,0,1,
	| 0,0,0,0,0,0,0,1,0,
	| 0,0,0,0,0,0,0,0,1,
	| 0,0,0,0,0,0,0,1,0,
	| 0,0,0,0,0,0,0,1,0,
	| 0,1,0,0,0,0,0,0,0,
	| 0,0,0,0,0,0,0,0,0, |];

% SumOfsreq = 140;

nResources = 8;
mastery = [| false,false,false,false,false,false,false,false,true,
	| false,false,false,false,false,false,false,false,true,
	| false,true,true,false,false,false,true,true,true,
	| false,false,false,false,false,false,false,true,true,
	| false,false,false,true,true,true,true,true,true,
	| false,false,true,false,false,false,true,true,true,
	| true,true,true,true,true,true,false,false,false,
	| false,false,false,true,true,true,false,false,false, |];

nPrecs = 194;
pred = [1,1,1,2,2,2,3,3,4,4,4,5,5,5,6,6,6,7,7,7,8,8,8,9,9,9,10,10,10,11,11,11,12,12,12,13,13,13,14,14,14,15,16,17,17,17,18,18,18,19,19,19,20,20,20,21,21,21,22,22,22,23,23,23,24,24,24,25,26,26,26,27,27,27,28,28,28,29,29,29,30,30,30,31,31,31,32,33,33,33,34,34,34,35,35,35,36,36,37,37,38,39,39,39,40,40,41,41,41,42,42,42,43,43,43,44,44,44,45,45,46,46,46,47,47,48,49,49,50,50,50,51,51,51,52,52,53,53,53,54,54,55,55,55,56,56,57,57,58,59,60,61,61,61,62,62,63,63,63,64,64,64,65,66,67,68,69,69,70,71,71,72,73,73,74,75,76,76,77,78,79,79,80,81,82,83,84,85,86,87,88,89,90,91];
succ = [2,3,4,36,23,16,11,39,9,5,7,18,6,8,43,14,63,10,38,47,17,12,32,44,79,39,20,53,31,13,30,47,33,27,55,72,22,38,29,21,15,30,64,85,42,37,57,19,75,52,43,36,71,46,55,58,30,24,26,35,34,25,29,54,54,39,32,51,57,59,28,34,35,31,74,91,48,66,53,47,67,68,37,58,75,40,87,41,73,88,80,64,48,50,51,61,59,62,65,76,44,60,77,70,61,45,50,44,56,50,51,55,49,56,48,49,54,78,63,56,49,58,64,57,67,60,81,69,83,69,70,89,84,62,65,66,75,62,79,60,69,77,61,72,59,71,82,71,81,68,65,73,89,88,74,80,66,68,70,89,67,83,84,72,73,79,90,77,86,85,78,76,74,78,81,76,83,88,80,87,82,85,82,86,87,84,86,90,90,91,91,92,92,92];

nUnrels = 2404;
unpred = [2,2,2,2,2,2,2,2,2,2,2,2,2,2,2,2,2,2,2,2,2,2,2,2,2,2,2,2,2,2,2,2,2,2,2,2,2,2,2,2,2,2,2,2,2,2,2,2,2,3,3,3,3,3,3,3,3,3,3,3,3,3,3,3,3,3,3,3,3,3,3,3,3,3,3,3,3,3,3,3,3,3,3,3,3,3,3,3,4,4,4,4,4,4,4,4,5,5,5,5,5,5,5,5,5,5,5,5,5,5,6,6,6,6,6,6,6,6,6,6,6,6,6,6,6,6,6,6,6,6,6,6,6,6,6,6,6,6,6,6,6,6,6,6,6,6,6,7,7,7,7,7,7,7,7,7,7,7,7,7,7,7,7,7,7,7,7,7,7,7,7,7,7,7,7,7,7,7,7,7,7,7,8,8,8,8,8,8,8,8,8,8,8,8,8,8,8,8,8,8,8,8,8,8,8,8,8,8,8,8,9,9,9,9,9,9,9,9,9,9,9,9,9,9,9,9,9,9,9,9,9,9,9,9,9,9,9,9,9,9,9,9,9,9,9,9,9,9,9,9,9,9,9,9,9,9,9,9,9,9,9,9,9,9,9,9,9,9,9,9,9,9,10,10,10,10,10,10,10,10,10,10,10,10,10,10,10,10,10,10,10,10,10,10,10,10,10,10,10,10,10,10,10,10,10,10,10,10,10,10,10,10,11,11,11,11,11,11,11,11,11,11,11,11,11,11,11,11,11,11,11,11,11,11,11,11,11,11,11,11,11,11,11,11,11,12,12,12,12,12,12,12,12,12,12,12,12,12,12,12,12,12,12,12,12,12,12,12,12,12,12,12,12,12,13,13,13,13,13,13,13,13,13,13,13,13,13,13,13,13,13,13,13,13,13,13,13,13,13,13,13,13,13,13,13,13,13,13,13,14,14,14,14,14,14,14,14,14,14,14,14,14,14,14,14,14,14,14,14,14,14,14,14,14,14,14,14,14,14,14,14,14,14,14,14,15,15,15,15,15,15,15,15,15,15,15,15,15,15,15,15,15,15,15,15,15,15,15,15,15,15,15,15,15,15,15,15,15,15,15,15,15,15,15,15,15,15,15,15,15,15,15,15,15,15,15,15,15,15,15,15,16,16,16,16,16,16,16,16,16,16,16,16,16,16,16,16,16,16,16,16,16,16,16,16,16,16,16,16,16,16,16,16,16,16,16,16,16,16,16,16,16,16,16,16,16,16,16,16,16,16,16,16,16,16,16,16,16,16,16,16,16,16,17,17,17,17,17,17,17,17,17,17,17,17,17,17,17,17,17,17,17,17,17,17,17,17,17,17,17,17,17,17,17,17,17,17,17,17,17,17,17,17,17,17,17,17,17,17,18,18,18,18,18,18,18,18,18,18,18,18,18,18,18,18,18,18,18,18,18,18,18,18,18,18,18,18,18,18,18,18,18,18,18,18,18,18,18,19,19,19,19,19,19,19,19,19,19,19,19,19,19,19,19,19,19,19,19,19,19,19,19,19,19,19,19,19,19,19,19,19,19,19,19,19,19,19,19,19,20,20,20,20,20,20,20,20,20,20,20,20,20,20,20,20,20,20,20,20,20,20,20,20,20,20,20,20,20,20,20,20,20,20,20,20,20,20,20,20,20,20,20,20,21,21,21,21,21,21,21,21,21,21,21,21,21,21,21,21,21,21,21,21,21,21,21,21,21,21,21,21,21,21,21,21,21,21,21,21,21,21,21,21,22,22,22,22,22,22,22,22,22,22,22,22,22,22,22,22,22,22,22,22,22,22,22,22,22,22,22,22,22,22,22,22,22,23,23,23,23,23,23,23,23,23,23,23,23,23,23,23,23,23,23,23,23,23,23,23,23,23,23,23,23,23,23,23,23,23,23,24,24,24,24,24,24,24,24,24,24,24,24,24,24,24,24,24,24,24,24,24,24,24,24,24,24,24,24,24,24,24,24,24,24,24,24,24,24,24,24,24,24,24,24,24,24,24,24,24,24,24,24,25,25,25,25,25,25,25,25,25,25,25,25,25,25,25,25,25,25,25,25,25,25,25,25,25,25,25,25,25,25,25,25,25,25,25,25,25,25,25,25,25,25,25,25,25,25,25,25,25,25,25,25,25,25,26,26,26,26,26,26,26,26,26,26,26,26,26,26,26,26,26,26,26,26,26,26,26,26,26,26,26,26,26,26,26,26,26,26,26,26,26,26,26,26,26,26,26,26,26,26,27,27,27,27,27,27,27,27,27,27,27,27,27,27,27,27,27,27,27,27,27,28,28,28,28,28,28,28,28,28,28,28,28,28,28,28,28,28,28,28,28,28,28,28,28,28,28,28,28,28,28,28,28,28,28,28,28,28,28,28,28,28,28,28,28,28,28,28,28,28,28,28,28,28,28,29,29,29,29,29,29,29,29,29,29,29,29,29,29,29,29,29,29,29,29,29,29,29,29,29,29,29,29,29,29,29,29,29,29,29,29,29,30,30,30,30,30,30,30,30,30,30,30,30,30,30,30,30,30,30,30,30,30,30,30,30,30,30,30,30,30,30,30,30,30,30,30,30,30,30,30,30,30,30,31,31,31,31,31,31,31,31,31,31,31,31,31,31,31,31,31,31,31,31,31,31,31,31,31,31,31,31,31,31,31,32,32,32,32,32,32,32,32,32,32,32,32,32,32,32,32,32,32,32,32,32,32,32,32,32,32,32,32,32,32,32,32,32,32,32,32,32,32,32,32,32,32,32,32,32,32,32,32,32,32,32,32,32,32,32,32,32,33,33,33,33,33,33,33,33,33,33,33,33,33,33,33,33,33,33,33,33,33,33,33,33,33,33,33,33,33,34,34,34,34,34,34,34,34,34,34,34,34,34,34,34,34,34,34,34,34,34,34,34,34,34,34,34,34,34,34,34,34,34,34,34,34,34,34,34,35,35,35,35,35,35,35,35,35,35,35,35,35,35,35,35,35,35,35,35,35,35,35,35,35,35,35,35,35,35,35,35,35,35,35,36,36,36,36,36,36,36,36,36,36,36,36,36,36,36,36,36,36,36,36,36,36,36,36,36,36,36,36,36,36,36,36,36,36,36,36,36,36,36,36,36,36,37,37,37,37,37,37,37,37,37,37,37,37,37,37,37,37,37,37,37,37,37,37,37,37,37,37,37,37,37,37,37,37,37,37,37,37,37,37,37,37,37,37,37,37,37,37,38,38,38,38,38,38,38,38,38,38,38,38,38,38,38,38,38,38,38,38,38,38,38,38,38,38,38,38,38,38,38,38,38,38,38,38,38,39,39,39,39,39,39,39,39,39,39,39,39,39,39,39,39,39,39,39,39,39,39,39,39,39,39,39,39,39,39,39,39,39,39,39,39,39,39,39,39,39,40,40,40,40,40,40,40,40,40,40,40,40,40,40,40,40,40,40,40,40,40,40,40,40,40,41,41,41,41,41,41,41,41,41,41,41,41,41,41,41,41,41,41,41,41,41,41,41,41,41,42,42,42,42,42,42,42,42,42,42,42,42,42,42,42,42,42,42,42,42,42,42,42,42,42,43,43,43,43,43,43,43,43,43,43,43,43,43,43,43,43,43,43,43,43,43,43,43,43,43,43,43,44,44,44,44,44,44,44,44,44,44,44,44,44,44,44,44,44,44,44,44,44,44,44,44,44,44,44,44,44,44,44,44,45,45,45,45,45,45,45,45,45,45,45,45,45,45,45,45,45,45,45,45,45,45,45,45,45,45,46,46,46,46,46,46,46,46,46,46,46,46,46,46,46,46,46,46,46,46,46,46,46,46,46,46,47,47,47,47,47,47,47,47,47,47,47,47,47,47,47,47,47,47,47,47,47,47,47,47,47,47,47,47,47,47,47,48,48,48,48,48,48,48,48,48,48,48,48,48,48,48,48,48,48,48,48,48,48,48,48,48,48,48,48,48,48,48,48,48,48,48,48,48,48,49,49,49,49,49,49,49,49,49,49,49,49,49,49,49,49,49,49,49,49,49,49,49,49,49,49,49,49,49,49,49,49,49,50,50,50,50,50,50,50,50,50,50,50,50,50,50,50,50,50,50,50,50,50,50,50,50,50,50,50,50,50,50,51,51,51,51,51,51,51,51,51,51,51,51,51,51,51,51,51,51,51,51,51,51,51,51,51,51,51,51,51,52,52,52,52,52,52,52,52,52,52,52,52,52,52,52,52,52,52,52,52,52,52,52,52,52,52,52,52,52,53,53,53,53,53,53,53,53,53,53,53,53,53,53,53,53,53,53,53,53,53,53,54,54,54,54,54,54,54,54,54,54,54,54,54,54,54,54,54,54,54,54,54,54,54,54,54,54,55,55,55,55,55,55,55,55,55,55,55,55,55,55,55,55,55,55,56,56,56,56,56,56,56,56,56,56,56,56,56,56,56,56,56,56,56,56,56,56,56,56,56,57,57,57,57,57,57,57,57,57,57,57,57,57,57,57,57,57,57,57,57,57,57,57,57,57,57,57,58,58,58,58,58,58,58,58,58,58,58,58,58,58,58,58,58,58,58,58,58,58,58,58,58,58,58,58,58,58,59,59,59,59,59,59,59,59,59,59,59,59,59,59,59,59,59,59,59,59,59,59,59,59,59,60,60,60,60,60,60,60,60,60,60,60,60,60,60,60,60,60,60,60,60,60,60,60,60,60,60,60,61,61,61,61,61,61,61,61,61,61,61,61,61,61,61,61,61,61,61,61,62,62,62,62,62,62,62,62,62,62,62,62,62,62,62,62,62,62,62,62,62,63,63,63,63,63,63,63,63,63,63,63,63,63,64,64,64,64,64,64,64,64,64,64,64,64,64,64,64,65,65,65,65,65,65,65,65,65,65,65,65,65,65,65,65,65,65,65,65,65,65,65,66,66,66,66,66,66,66,66,66,66,66,66,66,66,66,66,66,67,67,67,67,67,67,67,67,67,67,67,67,67,67,67,67,68,68,68,68,68,68,68,68,68,68,68,68,68,68,68,68,68,69,69,69,69,69,69,69,69,69,69,69,69,69,69,69,69,70,70,70,70,70,70,70,70,70,70,70,70,70,70,70,70,70,70,70,71,71,71,71,71,71,71,71,71,71,71,71,71,71,71,72,72,72,72,72,72,72,72,72,72,72,72,73,73,73,73,73,73,73,73,73,73,73,74,74,74,74,74,74,74,74,74,74,74,74,74,74,75,75,75,75,75,75,75,75,75,76,76,76,76,76,76,76,76,76,77,77,77,77,77,77,77,77,77,77,78,78,78,78,78,78,78,78,78,78,78,79,79,79,79,79,79,79,80,80,80,80,80,80,80,80,81,81,81,81,81,81,81,81,82,82,82,82,82,82,82,83,83,83,83,83,84,84,84,84,84,85,85,85,85,85,86,86,86,86,87,87,87,88,88,89,89,90];
unsucc = [3,4,5,6,7,8,9,10,11,12,13,14,15,17,18,19,20,21,22,24,26,27,28,30,31,32,33,34,35,37,38,39,40,41,42,43,44,45,46,48,49,50,52,55,56,58,61,63,70,4,5,6,7,8,9,10,12,14,15,16,17,18,19,20,21,23,24,25,27,29,31,32,33,36,40,41,42,43,45,46,52,53,55,56,58,63,66,75,11,13,16,22,23,25,26,28,7,9,10,11,13,16,20,22,23,25,26,28,38,46,7,8,9,10,11,12,13,16,17,18,19,20,22,23,25,26,27,28,31,33,34,35,36,38,40,41,42,44,45,46,50,51,52,55,61,64,89,8,9,11,12,13,14,15,16,17,18,19,21,22,23,24,25,26,27,28,29,30,32,33,34,35,36,37,39,41,42,43,48,50,51,52,9,10,11,13,14,15,16,18,19,20,21,22,23,24,25,26,28,29,30,36,38,39,43,46,47,52,53,57,10,11,12,13,14,15,16,17,18,19,20,21,22,23,24,25,26,27,28,29,30,31,32,33,34,35,36,37,38,40,41,42,43,45,46,47,48,50,51,52,53,55,56,57,58,59,61,62,63,64,66,67,68,71,72,73,74,75,76,83,88,89,11,12,13,14,15,16,17,18,19,21,22,23,24,25,26,27,28,29,30,32,33,34,35,36,37,38,39,41,42,43,44,47,48,50,51,52,54,57,60,65,12,14,15,16,17,18,19,20,21,23,24,25,27,29,31,32,33,36,39,40,41,42,43,45,46,52,53,55,56,58,63,66,75,13,14,15,16,17,18,19,20,21,22,23,24,25,26,28,29,30,32,36,37,38,39,42,43,46,47,52,53,57,14,15,16,17,18,19,20,21,23,24,25,27,29,30,31,32,33,36,37,39,40,41,42,43,45,46,47,52,53,55,56,58,63,66,75,16,17,18,19,20,22,23,25,26,27,28,31,33,34,35,36,38,40,41,42,43,44,45,46,48,49,50,51,52,55,56,59,61,63,64,89,16,17,18,19,20,21,22,23,24,25,26,27,28,29,31,32,33,34,35,36,38,39,40,41,42,43,44,45,46,47,48,49,50,51,52,53,54,55,56,57,58,59,60,61,62,63,64,66,69,70,71,72,75,77,80,89,17,18,19,20,21,22,23,24,25,26,27,28,29,30,31,32,33,34,35,36,37,38,39,40,41,42,43,44,45,46,47,48,49,50,51,52,53,54,55,56,57,58,59,60,61,62,63,65,66,68,69,70,71,72,75,76,77,79,80,82,85,88,18,19,20,21,22,23,24,25,26,27,28,29,30,31,32,33,34,35,36,38,39,40,41,43,44,45,46,47,48,49,52,53,54,56,57,58,59,60,63,64,66,67,68,71,75,79,20,21,22,23,24,25,26,27,28,29,30,31,32,33,34,35,37,38,39,40,41,42,44,45,46,47,50,51,53,54,55,58,61,63,64,67,70,73,89,20,21,22,23,24,25,26,27,28,29,30,31,32,33,34,35,37,38,39,40,41,42,44,45,46,47,50,51,53,54,55,57,58,61,63,64,67,70,73,75,89,21,22,23,24,25,26,27,28,29,30,31,32,33,34,35,36,37,38,39,40,41,42,43,44,45,47,48,50,51,52,53,54,56,57,59,60,62,63,65,66,68,70,75,79,22,23,25,26,27,28,29,31,33,34,35,36,38,40,41,42,43,44,45,46,47,48,49,50,51,52,53,55,56,57,59,61,62,63,64,66,71,72,75,89,23,24,25,27,29,30,31,32,33,36,37,38,39,40,41,42,43,44,45,46,47,49,52,53,54,55,56,58,63,66,72,75,76,24,26,27,28,30,31,32,33,34,35,36,37,38,39,40,41,42,43,44,45,46,48,49,50,52,55,56,58,59,61,63,64,68,70,25,26,27,28,29,30,31,33,34,35,36,37,38,40,41,42,43,44,45,46,47,48,49,50,51,52,53,55,56,57,58,59,61,62,63,64,66,67,68,71,72,73,74,75,76,78,79,81,83,85,88,89,26,27,28,29,30,31,32,33,34,35,36,37,38,39,40,41,42,43,44,45,46,47,48,49,50,52,53,54,55,56,57,58,59,60,61,63,64,65,66,67,68,69,70,71,72,73,75,76,77,78,79,83,85,88,27,29,30,31,32,33,34,35,36,37,38,39,40,41,42,43,44,45,46,47,49,50,51,52,53,54,55,56,58,61,62,63,64,66,67,69,70,72,73,75,76,77,80,83,88,89,28,29,30,32,33,36,37,38,39,41,42,43,44,46,47,49,52,53,54,55,57,29,30,31,32,33,34,35,36,37,38,39,40,41,42,43,44,45,46,47,49,50,51,52,53,54,55,56,57,58,59,61,62,63,64,66,67,68,69,70,71,72,73,75,76,77,78,79,80,82,83,85,87,88,89,30,31,32,33,34,35,36,37,38,39,40,41,42,43,44,45,46,48,49,50,51,52,54,55,56,58,59,60,61,63,64,65,68,69,70,77,89,31,32,33,34,35,36,38,39,40,41,42,43,44,45,46,47,48,49,50,51,52,53,54,55,56,57,58,59,60,61,62,63,64,66,69,70,71,72,75,77,80,89,32,33,34,35,36,37,38,39,41,42,43,44,46,47,48,49,50,51,52,53,54,55,57,60,62,64,65,67,69,77,80,33,34,35,36,37,38,39,40,41,42,43,44,45,46,47,48,49,50,51,52,53,54,55,56,57,58,59,60,61,62,63,64,65,66,67,68,69,70,71,72,73,74,75,76,77,78,79,80,81,82,83,84,85,86,88,89,90,34,35,36,37,38,39,40,42,43,45,46,47,48,51,52,53,55,57,58,61,62,63,64,66,67,72,75,76,89,35,36,37,38,39,40,41,42,43,44,45,46,47,49,50,51,52,53,54,55,56,57,58,59,61,62,63,66,68,69,70,71,72,75,76,77,79,85,88,36,37,38,39,40,41,42,43,44,45,46,47,48,49,52,53,54,55,56,57,58,59,60,63,64,65,66,67,68,71,72,75,76,79,85,37,38,39,40,41,42,43,44,45,46,47,48,49,50,51,52,53,54,55,56,57,58,60,61,63,64,65,66,67,69,70,71,72,73,75,76,77,78,83,84,88,89,38,39,40,41,42,43,44,45,46,47,48,49,50,51,52,53,54,55,56,57,58,59,60,61,62,63,64,66,67,68,69,70,71,72,73,74,75,77,78,79,80,81,82,85,87,89,39,40,41,42,43,45,46,47,48,50,51,52,53,55,56,57,58,59,61,62,63,64,66,67,68,70,71,72,73,74,75,76,79,83,85,88,89,40,41,42,43,44,45,46,47,48,49,50,51,52,53,54,55,56,57,58,59,61,62,63,64,66,67,68,69,71,72,73,74,75,76,78,79,81,83,85,88,89,41,42,43,44,46,47,48,49,50,51,52,53,54,55,57,58,60,62,64,65,67,69,75,77,80,42,43,45,46,47,48,51,52,53,55,57,58,61,62,63,64,66,67,72,73,74,75,76,88,89,43,44,45,46,47,48,49,52,53,54,56,57,58,59,60,63,64,65,66,67,68,71,75,79,85,44,45,46,47,50,51,52,53,54,55,57,58,61,62,63,64,66,67,70,72,73,74,75,76,83,88,89,45,46,47,48,50,51,52,53,55,56,57,58,59,61,62,63,64,66,67,68,70,71,72,73,74,75,76,79,83,85,88,89,46,47,48,49,50,51,52,53,54,55,57,58,60,61,62,64,65,67,69,73,74,75,77,80,81,89,47,48,50,51,52,53,54,55,56,57,59,60,61,62,63,65,66,68,70,71,72,75,76,79,85,88,48,49,50,51,52,53,54,55,56,58,59,60,61,62,63,64,65,66,68,69,70,72,75,76,77,79,80,83,84,88,89,49,50,51,52,53,54,55,56,57,58,59,61,62,63,64,66,67,68,69,70,71,72,73,74,75,76,77,78,79,80,81,82,83,85,87,88,89,91,50,51,52,53,54,55,56,57,58,59,60,61,62,63,64,65,66,67,68,70,71,72,73,74,75,76,78,79,83,84,85,88,89,51,52,53,54,55,56,57,58,59,60,61,62,63,64,65,66,67,68,71,72,73,74,75,76,78,79,81,85,88,89,52,53,54,55,56,57,58,59,60,61,63,64,65,66,67,68,69,70,71,72,73,75,76,77,78,79,83,85,88,53,54,55,56,57,58,59,60,61,62,63,64,67,68,69,70,71,73,74,75,77,78,79,80,81,82,85,87,89,54,55,56,57,58,59,60,61,63,64,65,66,67,68,69,70,71,72,73,77,78,89,55,56,57,58,59,61,62,63,64,66,67,68,70,71,72,73,74,75,76,78,79,81,83,85,88,89,56,57,58,59,60,62,63,64,65,66,67,68,69,70,71,75,79,85,57,58,60,61,62,63,64,65,66,67,69,70,72,73,74,75,76,77,80,81,83,84,86,88,89,58,59,60,61,62,63,64,65,66,67,68,69,70,72,73,74,75,76,77,79,80,81,83,84,86,88,89,59,60,61,62,63,64,65,66,67,68,69,70,71,72,73,74,75,76,77,78,79,80,82,83,84,85,87,88,89,91,60,61,62,63,64,65,66,67,69,70,71,72,73,74,75,76,77,78,80,81,83,84,86,88,89,61,62,63,64,66,67,68,69,70,71,72,73,74,75,76,77,78,79,80,81,82,83,85,87,88,89,91,62,63,64,65,66,67,68,69,70,71,72,75,76,77,79,80,82,83,84,85,63,64,65,66,67,68,69,70,71,72,73,75,76,77,78,79,83,84,85,88,89,64,65,67,69,71,73,74,75,77,78,80,81,89,65,66,68,69,70,71,72,75,76,77,79,80,82,85,88,66,67,68,69,70,71,72,73,74,75,76,77,78,79,80,81,82,83,85,87,88,89,91,67,68,69,70,71,73,74,75,77,78,79,80,81,82,85,87,89,68,69,70,71,72,75,76,77,79,80,82,83,84,85,88,89,69,70,71,72,73,74,75,76,77,78,80,81,83,84,86,88,89,70,71,72,73,74,75,76,78,79,81,83,84,85,86,88,89,71,72,73,74,75,76,77,78,79,80,81,82,83,84,85,87,88,89,91,72,73,74,75,76,77,79,80,81,82,83,84,86,88,89,73,74,75,77,78,79,80,81,82,85,87,89,75,76,77,79,80,82,83,84,85,88,89,75,76,77,78,79,80,82,83,84,85,87,88,89,91,77,78,79,80,81,82,85,87,89,77,78,79,80,81,82,85,87,89,78,79,81,83,84,85,86,88,89,90,79,80,81,82,83,84,85,86,88,89,90,80,81,83,84,86,88,89,81,83,84,85,86,88,89,90,82,83,84,85,87,88,89,91,83,84,85,86,88,89,90,85,87,88,89,91,85,87,88,89,91,86,87,88,89,91,87,88,89,91,88,89,90,89,90,90,91,91];

USEFUL_RES = [{},
	{3,5,6},
	{1,2,3,4,5,6},
	{1,2,3,4,5,6},
	{3,4,5,6},
	{3,4,5,6},
	{1,2,3,4,5,6},
	{3,4,5,6},
	{3,4,5,6},
	{1,2,3,4,5,6,7,8},
	{3,4,5,6,7,8},
	{1,2,3,4,5,6},
	{1,2,3,4,5,6},
	{3,4,5,6},
	{3,5,6,7},
	{3,4,5,6},
	{1,2,3,4,5,6,7,8},
	{1,2,3,4,5,6},
	{1,2,3,4,5,6,7,8},
	{3,4,5,6,7},
	{5,7,8},
	{1,2,3,4,5,6},
	{3,4,5,6},
	{1,2,3,4,5,6},
	{3,4,5,6},
	{3,6,7},
	{3,4,5,6},
	{3,4,5,6},
	{5,7,8},
	{1,2,3,4,5,6},
	{3,4,5,6},
	{1,2,3,4,5,6},
	{3,4,5,6},
	{3,5,6},
	{1,2,3,4,5,6},
	{1,2,3,4,5,6},
	{5,7,8},
	{3,4,5,6,7},
	{1,2,3,4,5,6},
	{3,5,6,7},
	{1,2,3,4,5,6},
	{5,7,8},
	{1,2,3,4,5,6},
	{3,4,5,6},
	{3,5,6},
	{1,2,3,4,5,6},
	{3,5,6},
	{3,4,5,6,7,8},
	{1,2,3,4,5,6},
	{5,7,8},
	{1,2,3,4,5,6,7,8},
	{1,2,3,4,5,6},
	{3,4,5,6},
	{1,2,3,4,5,6},
	{1,2,3,4,5,6},
	{1,2,3,4,5,6,7},
	{1,2,3,4,5,6},
	{1,2,3,4,5,6},
	{1,2,3,4,5,6},
	{1,2,3,4,5,6},
	{1,2,3,4,5,6},
	{1,2,3,4,5,6},
	{1,2,3,4,5,6},
	{3,4,5,6},
	{3,5,6},
	{1,2,3,4,5,6,7},
	{1,2,3,4,5,6},
	{3,4,5,6,7},
	{1,2,3,4,5,6},
	{1,2,3,4,5,6},
	{1,2,3,4,5,6,7},
	{1,2,3,4,5,6,7,8},
	{3,6,7},
	{1,2,3,4,5,6,7,8},
	{3,4,5,6},
	{5,7,8},
	{3,7},
	{1,2,3,4,5,6},
	{5,7,8},
	{1,2,3,4,5,6,7,8},
	{1,2,3,4,5,6},
	{3,4,5,6},
	{1,2,3,4,5,6},
	{5,7,8},
	{3,5,6,7},
	{1,2,3,4,5,6,7,8},
	{3,4,5,6},
	{1,2,3,4,5,6},
	{3,4,5,6},
	{3,4,5,6},
	{3,7},
	{}];

POTENTIAL_ACT = [{3,4,7,10,12,13,17,18,19,22,24,30,32,35,36,39,41,43,46,49,51,52,54,55,56,57,58,59,60,61,62,63,66,67,69,70,71,72,74,78,80,81,83,86,88},
	{3,4,7,10,12,13,17,18,19,22,24,30,32,35,36,39,41,43,46,49,51,52,54,55,56,57,58,59,60,61,62,63,66,67,69,70,71,72,74,78,80,81,83,86,88},
	{2,3,4,5,6,7,8,9,10,11,12,13,14,15,16,17,18,19,20,22,23,24,25,26,27,28,30,31,32,33,34,35,36,38,39,40,41,43,44,45,46,47,48,49,51,52,53,54,55,56,57,58,59,60,61,62,63,64,65,66,67,68,69,70,71,72,73,74,75,77,78,80,81,82,83,85,86,87,88,89,90,91},
	{3,4,5,6,7,8,9,10,11,12,13,14,16,17,18,19,20,22,23,24,25,27,28,30,31,32,33,35,36,38,39,41,43,44,46,48,49,51,52,53,54,55,56,57,58,59,60,61,62,63,64,66,67,68,69,70,71,72,74,75,78,80,81,82,83,86,87,88,89,90},
	{2,3,4,5,6,7,8,9,10,11,12,13,14,15,16,17,18,19,20,21,22,23,24,25,27,28,29,30,31,32,33,34,35,36,37,38,39,40,41,42,43,44,45,46,47,48,49,50,51,52,53,54,55,56,57,58,59,60,61,62,63,64,65,66,67,68,69,70,71,72,74,75,76,78,79,80,81,82,83,84,85,86,87,88,89,90},
	{2,3,4,5,6,7,8,9,10,11,12,13,14,15,16,17,18,19,20,22,23,24,25,26,27,28,30,31,32,33,34,35,36,38,39,40,41,43,44,45,46,47,48,49,51,52,53,54,55,56,57,58,59,60,61,62,63,64,65,66,67,68,69,70,71,72,73,74,75,78,80,81,82,83,85,86,87,88,89,90},
	{10,11,15,17,19,20,21,26,29,37,38,40,42,48,50,51,56,66,68,71,72,73,74,76,77,79,80,84,85,86,91},
	{10,11,17,19,21,29,37,42,48,50,51,72,74,76,79,80,84,86}];
